2646
1500000
998313
998313
998313
998313
998313
998313
998313
996377
996377
996009
996009
996009
996009
996009
996009
996009
996009
996009
996009
994272
994272
994272
994272
994211
994211
994211
994211
994211
994211
994211
994211
994211
994211
994211
994211
994211
994211
994211
994211
993849
993849
993849
993849
993849
993849
993849
993849
993260
993260
993260
993260
993260
993260
993260
993260
993260
993260
993260
984947
984947
980988
980988
980988
980988
980988
980988
979528
979528
978428
978428
978428
978235
978235
978235
978235
978235
978235
978235
976386
976386
976386
976386
976386
976386
976386
976386
976386
976386
976386
976386
976386
976386
976386
976386
976386
976386
976386
974614
974614
974614
974614
974614
974614
974614
974614
974614
974614
974614
974614
974614
974614
974614
974614
974614
974576
974576
974576
974576
974576
974576
974576
974576
965062
965062
965062
965062
965062
965062
965062
965062
965062
965062
965062
963430
963430
963430
963430
963430
963430
963430
963430
963430
963430
963430
963430
963430
963430
963430
963430
963430
963430
963430
960287
960287
960287
960287
960287
960287
959631
959631
959631
959631
959631
959631
959631
959631
959631
959631
959631
959631
959631
959631
959631
959631
959631
959631
954840
954840
954840
954840
954840
954840
954840
954840
954840
954840
952989
952989
952989
952304
952304
952304
952304
952304
944552
944552
944552
944552
944552
944552
944552
944552
944552
944552
944552
944552
944552
944552
944552
944552
944552
944552
944552
944552
941340
941340
941340
941340
941340
941340
941340
941340
941340
941340
941340
941340
941340
941340
936188
936188
936188
936188
936188
936188
936188
936188
936188
936188
936188
936188
936188
935637
935637
935637
935637
935637
935637
935637
935637
935637
935637
933882
933882
933882
933882
933882
933882
933882
933882
933882
933882
933882
933882
933882
932750
932750
932750
932750
932750
932750
932750
932750
932750
932750
932750
932750
932750
932750
930960
930960
930960
930960
930960
930960
930960
930960
930960
930960
930960
930960
930960
930960
930842
930842
930842
930842
930842
930842
930842
930842
930842
930842
930842
930842
930842
930842
930842
930842
930842
930842
930118
930118
930118
930118
930118
930118
930118
930118
930118
930118
930118
930118
930118
930118
930118
930118
930118
930118
930118
929667
929667
929667
927770
927770
927770
927770
927770
927770
927770
927770
924867
924867
924867
924867
924283
924283
924283
924283
924283
924283
924283
924283
924283
921958
921958
921958
921958
921958
921958
921958
921958
921958
921958
921958
921958
921958
921958
921958
921958
919489
919262
919262
919262
919262
919262
919262
919262
919262
919193
919193
919193
919193
919193
919193
919193
919193
919193
919193
919193
919193
919193
919193
919193
919193
919193
919193
919193
918297
918297
918297
918297
918297
918297
918297
918297
918297
918297
918297
918297
918297
918297
918297
918297
918297
918297
918297
918297
915655
915655
915655
915655
915655
915655
915655
915655
915655
908067
908067
908067
908067
908067
908067
908067
908067
908067
908067
908067
908067
908067
908067
908067
908067
908067
900073
900073
900073
900073
900073
900073
900073
900073
900073
900073
900073
900073
900073
898644
898644
898644
898644
898644
898644
898644
898644
898644
898644
898644
898644
898644
898644
896258
896258
896258
896258
896258
896258
896258
896258
896258
896258
896258
893221
893221
893221
893221
893221
893221
893221
893221
893221
893221
893221
893221
893221
893221
893221
893221
893221
893221
893221
886358
886358
886358
886358
886358
886358
885300
885300
885300
885300
885300
885300
885300
885300
885300
885300
885300
885300
885300
885300
885300
885300
883239
883239
883239
883239
878524
878524
878524
878524
878524
878524
878524
878524
878524
876278
874863
874863
874863
874863
873487
873487
873487
873487
873487
873487
873487
873487
873487
873487
872742
872624
872624
872624
872624
872624
872624
872624
872624
872624
872624
872624
872624
872624
872624
872624
872624
872624
872624
869764
869764
869764
869175
869175
869175
869175
869175
869175
869175
869175
869175
869175
869175
869175
866571
866571
866571
866571
866571
866571
866571
866571
866571
866571
866571
866571
857880
857880
857880
857880
857880
857880
857880
857880
857880
857880
857880
857880
857880
857880
857880
850661
850661
850661
850661
850661
850661
850661
850661
850661
850661
850661
850661
850661
850661
850661
850661
850661
850661
850661
845226
845226
845226
845226
845226
845226
845226
845226
845226
845226
845226
845226
845226
845226
845226
845226
844575
844575
844575
844575
844575
844575
844575
844575
844575
844575
844575
842907
842907
842907
842907
842907
842907
842907
842907
842907
842907
842907
842907
842907
842907
842907
842907
842907
841993
841993
841993
841993
841993
841993
841993
841993
841993
841993
841993
829263
829263
829263
829263
829263
829263
829263
829263
829263
829263
829263
822552
822552
822552
822552
822552
822552
822552
822552
822552
822552
822126
822126
822126
822126
822126
822126
822126
822126
822126
822126
822126
822126
822126
822126
813377
813377
813377
813377
813377
813377
813377
813377
813377
813377
813377
813377
813377
813377
813377
813377
813290
813290
813290
813290
813290
813290
813290
813290
813290
813290
813290
813290
813290
813290
813290
813290
813290
802189
802189
802189
802189
802189
802189
802189
802189
802189
802189
802189
802189
802189
802189
802189
802189
802189
802189
799819
799819
799819
799819
799819
799819
799819
799819
799819
799819
799819
799819
793194
793194
793194
793194
793194
793194
793194
793194
793194
793194
793194
793194
793117
793117
793117
793117
793117
793117
793117
793117
793117
793117
793117
793117
793117
793117
793117
793117
793117
791285
791285
791285
791285
791285
791285
791285
791285
791285
791285
791285
791285
791285
791285
790964
790964
790964
790964
790964
790964
790964
790964
790964
789921
789921
789921
789921
789921
789921
789921
789921
789921
787209
787209
787209
787209
787209
787209
787209
787209
787209
787209
787209
787209
787209
787209
787209
787209
772923
772923
772923
772923
772923
772923
772923
772923
772923
772923
772923
772923
772923
772923
772923
772923
772923
772923
772598
772598
772598
772598
772598
772598
772598
772598
772598
772598
772598
772598
772598
772598
772598
760270
760270
760270
760270
759734
759734
759734
759734
759734
759734
759734
759734
759734
759734
759734
759734
759734
759734
759734
759734
756294
755144
755144
755144
755144
755144
755144
755144
755144
755144
755144
755144
755144
755144
755144
755144
755144
755144
755144
750122
750122
750122
750122
750122
750122
750122
750122
750122
748223
748223
748223
745701
745701
745701
745701
745701
745701
745701
745701
745701
745701
744487
744487
744487
744487
744487
744487
744487
744487
744487
744487
738739
738739
738739
738739
738739
738739
738739
733140
733140
733140
733140
733140
733140
733140
733140
733140
733140
733140
733140
733140
733140
723842
723842
723842
723842
723842
723842
723842
723842
723842
723842
723842
723842
723842
718274
718274
718274
718274
718274
718274
718274
718274
718274
718274
718274
718274
718274
718274
718274
718274
718164
717852
717852
717852
717852
717852
717471
717471
717471
717471
717471
717471
717471
717471
717471
717471
716418
716418
716418
716418
716418
716418
714008
714008
714008
713102
710041
710041
710041
710041
710041
710041
710041
710041
710041
710041
707268
707268
707268
707268
705305
705305
705305
705305
705305
705305
705305
705305
705305
705305
705305
705305
705305
693432
693432
693432
693432
693432
693432
693432
693432
693432
693432
693432
693432
693432
693432
693432
692996
692996
692996
692996
692996
692996
692996
692996
692996
692996
692996
692996
692996
692996
692996
692996
692996
692996
692996
675927
675927
675927
675927
675927
675927
675927
675927
675927
675927
675927
672813
672813
672813
672813
672813
672813
672813
672203
672203
672203
672203
672203
672203
672203
672203
672203
667477
667477
667477
667477
667477
667477
667477
667477
667477
667477
667477
667477
667477
667477
667477
667477
667477
667477
667477
667477
666911
666911
666911
666911
666911
666911
666911
666911
666911
666911
666911
665814
665814
665814
665814
665814
665814
665814
665814
665814
665814
665814
665814
665814
665814
665814
665814
665814
665814
664990
664990
664990
664990
664990
664990
664990
664990
664990
664990
664990
664990
664990
664990
664990
664990
664990
664990
664990
662068
662068
662068
662068
662068
662068
662068
662068
662068
662068
662068
662068
662068
662068
662068
662068
662068
662068
655647
655647
655647
655647
655647
655647
655647
655647
655647
655647
655647
655647
655647
655647
655647
655647
655647
654086
654086
654086
654086
654086
654086
654086
654086
654086
654086
654086
654086
654086
654086
654086
654086
654086
654086
650927
650927
650927
650927
650927
650927
650927
650927
650927
650927
650927
650927
650927
650927
650379
650379
650379
650379
646579
646579
646579
646579
646579
646579
646579
646579
646579
646579
646579
646579
646579
646579
646579
646579
646579
646579
646579
628445
628445
628445
624403
624403
619734
619734
619734
619734
619734
619301
619301
619301
619301
619301
619301
619301
619301
619301
619301
619301
619301
619301
619301
619301
619301
619301
619301
619301
619301
617586
617586
617586
617586
616060
616060
616060
616060
616060
616060
616060
616060
616060
615890
615890
615537
615537
615537
615537
615537
615537
615537
615537
615537
615537
613495
613495
613495
613495
613495
613495
613495
613495
613495
613495
613495
609887
609887
609887
607540
607540
607540
607540
607540
607540
607540
606173
606173
606173
606173
606173
606173
606173
606173
606173
606173
589267
589267
589267
589267
589267
589267
589267
589267
578469
578469
578469
578469
578469
578469
578469
578469
578469
578469
578469
578469
578469
578469
578469
578469
578469
578469
576591
576591
576591
576591
576591
576591
576591
576591
576591
576591
575124
575124
575124
574952
574952
574952
574952
574952
574952
574952
574952
573846
573846
573846
573846
573846
573846
573846
573846
570672
570672
570672
570672
570672
570672
570672
570672
570672
570672
570672
570672
570672
570672
570672
570672
570672
570672
570672
570569
570569
570569
570569
570569
570569
570569
570569
570569
570569
570569
570569
563693
563693
563693
563693
563693
558103
558103
558103
558103
558103
558103
558103
553105
553105
553105
553105
553105
549150
548755
548755
548755
548755
548755
548755
548755
548755
548755
548755
548755
548755
542128
542128
542128
542128
542128
542128
542128
542128
542128
542128
542128
542128
540294
540294
540294
538979
538979
538979
538979
538979
538979
538979
538979
538979
538979
538979
538979
538979
538979
538979
538979
538979
538979
538979
538979
538587
538587
538587
538587
532318
532318
532318
532318
532318
532318
530798
530798
530798
530798
530798
530798
530798
530798
530798
523154
523154
523154
523154
523154
523154
523154
523154
523154
523154
523154
519199
519199
519199
518407
518407
518407
518407
518407
518407
518407
518114
518114
518114
518114
518114
518114
518114
518114
518114
518114
518114
518114
518114
502495
502495
502495
502495
502495
502495
502495
502495
502495
502495
502495
502495
502495
502495
502495
502495
502495
502495
502495
502437
502437
502437
502437
502437
502437
502437
502437
502437
502437
502437
502437
502437
502437
499399
499399
499399
499399
499399
499399
499399
499399
499399
499399
499399
499399
499399
499399
499399
498583
498583
498583
498583
498583
498583
498583
498583
498583
492211
492211
492211
492211
492211
492211
492211
492211
492211
489930
489930
489930
489930
489930
483320
483320
483320
483320
483320
482886
482886
482886
482886
482886
482886
482886
482886
482886
482477
482477
482477
481465
481465
481465
481465
481465
481310
481310
481310
481310
481310
481310
481310
481310
481310
481310
481310
481310
481310
481310
481310
481310
481310
478648
478648
478648
478648
478648
478648
478648
478648
478648
478648
478648
478648
478648
478397
478397
478397
478397
478397
478397
478397
478397
478397
478397
477347
477347
477347
477347
477347
473870
473870
473870
473870
473870
473870
473870
473870
473870
473870
473870
473870
473870
473870
472628
472628
472628
472628
472628
472628
472628
472628
472628
472628
472628
472628
472628
472628
472628
472628
472628
472628
472628
468460
468460
468460
468460
468460
468460
468460
468460
468460
468460
468460
468460
468460
468460
468460
468460
466890
466890
464683
464683
464683
464683
464683
464683
464683
464683
464683
464683
464683
464683
464683
464683
464683
464683
464683
464683
464683
464505
464505
464505
464505
464505
464505
464505
464505
464505
464505
464505
464505
464505
464505
464505
461665
461665
461665
461665
461665
461665
461665
461665
460314
460314
460314
460314
460314
460314
460314
459809
459809
459809
459809
459809
455174
455174
455174
455174
455174
455174
447550
447550
447550
447550
447550
447550
447550
447550
447550
447550
447550
447550
447550
447550
447550
447550
447550
447550
447550
446704
446704
446375
446375
446375
446375
446375
446375
446375
446375
441356
441356
441356
441356
441356
441356
441356
437599
437599
437599
437599
437599
437599
437599
437599
437599
437599
437599
437599
437599
437599
437599
437599
437599
425268
425268
425268
425268
425268
425268
425268
425268
425268
425268
425268
425268
413656
413656
413656
413656
413656
412301
412301
412301
412301
412301
412301
412301
412301
412301
412301
411515
411515
411515
411515
411515
411515
411515
411515
411515
411515
411515
411515
411515
407292
407292
407292
407292
407292
407292
407292
407292
407292
407292
407292
407292
404923
404923
404923
404923
404923
404923
404923
404923
404923
404923
404923
404923
404923
404776
404776
404776
404776
404776
404552
404552
404552
404552
404552
404552
404552
404552
404552
404552
404552
404552
404552
404552
404552
404552
404552
404552
404552
397815
397815
397815
397815
397662
397662
389292
389292
389292
389292
389292
389292
389292
385461
385461
385461
385461
385461
385461
385461
385461
385461
385461
385461
385461
385461
385461
385461
385461
385461
385461
385461
385461
375472
375472
375472
375472
375472
375472
375472
375472
375472
375472
375472
375472
375472
375472
364995
364995
364995
364995
364995
364995
364995
364995
364995
364995
362449
362449
362449
362449
362449
362449
362449
362449
362449
362449
362449
356099
356099
354185
354185
354185
354185
354185
354185
354185
354185
354185
354185
354185
353204
353204
353204
353204
353204
353204
350015
350015
350015
350015
350015
350015
350015
350015
350015
350015
350015
348942
348942
348942
348942
347231
347231
347231
347231
347231
347231
347231
347231
347231
347231
347231
347231
347231
347231
347231
347231
347231
347231
347231
346788
346788
346788
346788
346788
346788
346788
346788
346788
346788
339509
339509
339509
339509
339509
339509
339509
339509
339509
339509
339509
333402
333402
333402
333402
333402
333402
333402
333402
333402
333402
333402
333402
333402
333402
333402
333402
333402
332698
332698
332698
332698
332698
332698
332698
332698
332698
332698
332698
332698
332698
332698
332698
332698
327606
327606
327606
325751
325751
325751
325751
325751
325751
325751
325751
325751
325751
325751
325751
325751
324762
324762
324762
324762
324762
324762
324762
324762
324762
324762
324762
324762
314092
314092
314092
314092
314092
314092
314092
314092
314092
314092
314092
314092
314092
314092
314092
314092
314092
314092
313701
313701
313701
310273
310273
310273
310273
310273
310273
310273
310273
310273
310273
310273
310273
310273
310273
310273
310273
310273
310273
310273
310273
296063
296063
296063
296063
296063
296063
296063
296063
296063
296063
295453
295453
295453
295453
295453
295453
295453
295453
287547
287547
287547
287547
287547
287547
287547
287547
287547
287547
287547
287547
287547
287547
287547
287547
287547
285847
285847
285847
285847
285847
285847
285847
285847
285847
285847
285847
282746
282746
282746
282746
282746
282746
282746
282746
282746
282746
282746
282746
282746
282746
282746
282746
282746
282746
280308
280308
280308
280308
280308
280308
280308
280308
280308
280308
280308
280308
280308
280308
280308
280308
280308
280080
280080
280080
280080
280080
280080
280040
280040
273673
273494
273494
273494
273494
273494
273494
273494
273494
273494
273494
273494
273494
273494
273494
273494
269860
269522
269522
269522
269522
269522
269522
269522
269522
269522
269522
269522
269522
269522
261120
261120
261120
261120
261120
261120
261120
261120
261120
261120
261120
261120
261120
261120
261120
258942
258942
258942
256363
256363
256363
256363
256363
256363
256363
256363
256363
256363
256363
256363
256363
256363
256363
256363
256363
253573
253573
253573
253573
253573
253573
253573
253573
253573
253573
253573
253573
253573
253573
253573
253573
253573
252638
252638
249764
249764
249764
249764
249764
249764
249764
249764
249764
249764
249764
249764
249764
249764
249764
249764
249764
249764
249764
249764
245072
244541
244541
244541
244541
244541
244541
244541
244541
244541
244541
244541
244541
244541
244541
244541
244541
244541
244541
244541
244501
244501
244501
244501
244501
244501
244501
244501
244501
244501
244501
244047
244047
244047
244047
244047
241724
241724
241724
241724
241724
241724
241014
241014
241014
241014
241014
241014
241014
241014
241014
241014
241014
241014
241014
241014
241014
239807
239807
239807
239807
239807
239807
239807
239807
239807
239807
239807
239807
238902
238902
238902
238902
238902
238902
238902
238902
238902
238902
238902
238471
238471
238471
238471
238471
238471
238471
238471
238471
238471
227965
227965
227965
227965
227965
227965
227965
227965
227965
227965
226233
226233
226233
226233
226233
226233
226233
226233
226233
224453
224453
224453
224453
224453
224453
224453
224453
224453
224453
224453
222217
222217
222217
222217
222217
222217
222217
222217
222217
222217
222217
222217
222217
222217
222217
222217
221840
221840
221840
221840
221840
220652
220652
220652
220652
220652
220652
220652
220652
220652
220652
220652
220652
218638
218638
218638
218638
218638
218638
218638
218638
218638
218638
218638
216326
216326
216326
216326
216326
216326
216326
216326
216326
216326
216326
216326
213516
213516
213516
213516
213516
213516
213516
213516
213516
213516
213516
213516
213516
212864
212864
212864
212864
212864
212864
212864
212864
212864
212864
212864
212864
212864
212864
212864
212864
212864
212864
212864
212864
201374
201374
201374
201374
201374
201374
201374
201374
201374
201374
201374
201374
201282
201282
201282
201282
201282
201282
201282
201282
201282
201282
201282
200479
200479
200479
200479
200479
200479
200479
200479
200479
200479
